Traveling Salesman Problem/TSP_generados/Aleatorio1621103835_18.tsp
NAME: Aleatorio1621103835_18.tsp
COMMENT: Randomly generated scenario
TYPE: TSP
DIMENSION: 18
EDGE_WEIGHT_TYPE: ATT
NODE_COORD_SECTION
1 15.93 42.27
2 19.43 6.89
3 13.47 28.67
4 18.73 4.25
5 28.06 43.33
6 46.01 47.97
7 35.51 16.15
8 4.08 15.99
9 1.82 29.06
10 13.91 37.94
11 44.09 26.01
12 46.44 32.18
13 18.57 38.01
14 14.11 48.64
15 33.12 18.96
16 7.32 9.67
17 25.96 25.98
18 43.83 9.26
