Traveling Salesman Problem/TSP_generados/Aleatorio1621103835_18.opt.tour
NAME: Aleatorio1621103835_18.opt.tour
COMMENT: Optimal solution for Aleatorio1621103835_18 (190.2746421210082)
TYPE: TOUR
DIMENSION: 18
TOUR_SECTION
1 13 10 3 9 8 16 4 2 17 15 7 18 11 12 6 5 14
-1
EOF
